c "source: networkx.gnm_random_graph()"
p edge 45 87
e 1 42
e 1 23
e 1 8
e 1 30
e 1 40
e 2 38
e 2 18
e 3 20
e 3 36
e 3 12
e 4 43
e 4 12
e 4 34
e 4 22
e 4 38
e 4 15
e 5 41
e 5 20
e 5 23
e 5 6
e 6 40
e 6 11
e 6 22
e 6 45
e 6 16
e 7 26
e 7 40
e 7 15
e 8 41
e 8 33
e 8 31
e 9 40
e 9 30
e 10 34
e 10 30
e 10 29
e 10 22
e 11 24
e 11 14
e 11 20
e 12 16
e 12 17
e 12 23
e 13 19
e 13 24
e 13 15
e 13 25
e 14 19
e 14 28
e 14 33
e 15 42
e 15 19
e 16 32
e 16 34
e 17 35
e 17 22
e 17 31
e 17 20
e 18 45
e 19 30
e 19 45
e 20 30
e 20 43
e 22 40
e 22 26
e 22 25
e 23 29
e 23 37
e 23 31
e 24 26
e 24 39
e 27 28
e 27 37
e 29 30
e 30 35
e 31 42
e 31 36
e 31 39
e 32 36
e 32 43
e 34 44
e 35 44
e 36 45
e 37 42
e 37 45
e 39 40
e 39 45
